0 59710 
1 58114 
2 56678 
3 56424 
4 56256 
5 56076 
6 55716 
7 55552 
8 55354 
9 55086 
10 54648 
11 54048 
12 52598 
13 52124 
14 51860 
15 51266 
16 49748 
17 49248 
18 48648 
19 48492 
20 48018 
21 47566 
22 47534 
23 47130 
24 46750 
25 46246 
26 45300 
27 43610 
28 42986 
29 41678 
30 40950 
31 40500 
32 40464 
33 40032 
34 39648 
35 39526 
36 38914 
37 38862 
38 38706 
39 38232 
40 37304 
41 37304 
42 36604 
43 36424 
44 35990 
45 35892 
46 35604 
47 35340 
48 35054 
49 33356 
50 33340 
51 32976 
52 32976 

